
Starting CP-SAT solver v9.14.6206
Parameters: max_time_in_seconds: 600 log_search_progress: true relative_gap_limit: 0
Setting number of workers to 20

Initial optimization model '': (model_fingerprint: 0x74209b5ae93f15b9)
#Variables: 374 (#ints: 34 in objective) (340 primary variables)
  - 34 in [0,14585]
  - 340 in [1440,14585]
#kInterval: 170
#kLinMax: 34 (#expressions: 68)
#kLinear1: 17
#kLinear2: 153
#kNoOverlap: 10 (#intervals: 170)

Starting presolve at 0.00s
  9.41e-05s  0.00e+00d  [DetectDominanceRelations] 
  2.33e-03s  0.00e+00d  [operations_research::sat::CpModelPresolver::PresolveToFixPoint] #num_loops=10 #num_dual_strengthening=1 
  2.00e-05s  0.00e+00d  [operations_research::sat::CpModelPresolver::ExtractEncodingFromLinear] 
  4.94e-05s  0.00e+00d  [operations_research::sat::CpModelPresolver::DetectDuplicateColumns] 
  1.01e-04s  0.00e+00d  [operations_research::sat::CpModelPresolver::DetectDuplicateConstraints] 
[Symmetry] Graph for symmetry has 911 nodes and 884 arcs.
[Symmetry] Symmetry computation done. time: 7.76e-05 dtime: 8.655e-05
  8.59e-05s  0.00e+00d  [operations_research::sat::CpModelPresolver::DetectDuplicateConstraintsWithDifferentEnforcements] 
  8.31e-04s  1.86e-06d  [operations_research::sat::CpModelPresolver::Probe] 
  1.19e-05s  0.00e+00d  [MaxClique] 
  6.31e-05s  0.00e+00d  [DetectDominanceRelations] 
  4.39e-04s  0.00e+00d  [operations_research::sat::CpModelPresolver::PresolveToFixPoint] #num_loops=1 #num_dual_strengthening=1 
  4.52e-05s  0.00e+00d  [operations_research::sat::CpModelPresolver::ProcessAtMostOneAndLinear] 
  7.50e-05s  0.00e+00d  [operations_research::sat::CpModelPresolver::DetectDuplicateConstraints] 
  6.84e-05s  0.00e+00d  [operations_research::sat::CpModelPresolver::DetectDuplicateConstraintsWithDifferentEnforcements] 
  4.82e-05s  1.12e-06d  [operations_research::sat::CpModelPresolver::DetectDominatedLinearConstraints] #relevant_constraints=187 
  4.05e-05s  0.00e+00d  [operations_research::sat::CpModelPresolver::DetectDifferentVariables] 
  4.30e-06s  0.00e+00d  [operations_research::sat::CpModelPresolver::ProcessSetPPC] 
  6.30e-06s  0.00e+00d  [operations_research::sat::CpModelPresolver::FindAlmostIdenticalLinearConstraints] 
  1.14e-05s  0.00e+00d  [operations_research::sat::CpModelPresolver::FindBigAtMostOneAndLinearOverlap] 
  2.59e-05s  6.63e-06d  [operations_research::sat::CpModelPresolver::FindBigVerticalLinearOverlap] 
  4.40e-06s  0.00e+00d  [operations_research::sat::CpModelPresolver::FindBigHorizontalLinearOverlap] 
  7.10e-06s  0.00e+00d  [operations_research::sat::CpModelPresolver::MergeClauses] 
  5.32e-05s  0.00e+00d  [DetectDominanceRelations] 
  3.52e-04s  0.00e+00d  [operations_research::sat::CpModelPresolver::PresolveToFixPoint] #num_loops=1 #num_dual_strengthening=1 
  5.00e-05s  0.00e+00d  [DetectDominanceRelations] 
  3.37e-04s  0.00e+00d  [operations_research::sat::CpModelPresolver::PresolveToFixPoint] #num_loops=1 #num_dual_strengthening=1 
  1.78e-05s  0.00e+00d  [operations_research::sat::CpModelPresolver::DetectDuplicateColumns] 
  6.89e-05s  0.00e+00d  [operations_research::sat::CpModelPresolver::DetectDuplicateConstraints] 
[Symmetry] Graph for symmetry has 911 nodes and 884 arcs.
[Symmetry] Symmetry computation done. time: 4.62e-05 dtime: 8.655e-05
  8.31e-05s  0.00e+00d  [operations_research::sat::CpModelPresolver::DetectDuplicateConstraintsWithDifferentEnforcements] 
  7.24e-04s  1.86e-06d  [operations_research::sat::CpModelPresolver::Probe] 
  5.10e-06s  0.00e+00d  [MaxClique] 
  5.95e-05s  0.00e+00d  [DetectDominanceRelations] 
  4.01e-04s  0.00e+00d  [operations_research::sat::CpModelPresolver::PresolveToFixPoint] #num_loops=1 #num_dual_strengthening=1 
  4.00e-05s  0.00e+00d  [operations_research::sat::CpModelPresolver::ProcessAtMostOneAndLinear] 
  6.86e-05s  0.00e+00d  [operations_research::sat::CpModelPresolver::DetectDuplicateConstraints] 
  6.63e-05s  0.00e+00d  [operations_research::sat::CpModelPresolver::DetectDuplicateConstraintsWithDifferentEnforcements] 
  3.60e-05s  1.12e-06d  [operations_research::sat::CpModelPresolver::DetectDominatedLinearConstraints] #relevant_constraints=187 
  3.94e-05s  0.00e+00d  [operations_research::sat::CpModelPresolver::DetectDifferentVariables] 
  3.60e-06s  0.00e+00d  [operations_research::sat::CpModelPresolver::ProcessSetPPC] 
  4.90e-06s  0.00e+00d  [operations_research::sat::CpModelPresolver::FindAlmostIdenticalLinearConstraints] 
  1.08e-05s  0.00e+00d  [operations_research::sat::CpModelPresolver::FindBigAtMostOneAndLinearOverlap] 
  2.73e-05s  6.63e-06d  [operations_research::sat::CpModelPresolver::FindBigVerticalLinearOverlap] 
  3.00e-06s  0.00e+00d  [operations_research::sat::CpModelPresolver::FindBigHorizontalLinearOverlap] 
  6.00e-06s  0.00e+00d  [operations_research::sat::CpModelPresolver::MergeClauses] 
  5.65e-05s  0.00e+00d  [DetectDominanceRelations] 
  3.62e-04s  0.00e+00d  [operations_research::sat::CpModelPresolver::PresolveToFixPoint] #num_loops=1 #num_dual_strengthening=1 
  3.54e-05s  0.00e+00d  [operations_research::sat::CpModelPresolver::ExpandObjective] 

Presolve summary:
  - 170 affine relations were detected.
  - rule 'TODO dual: only one blocking constraint?' was applied 306 times.
  - rule 'TODO dual: only one unspecified blocking constraint?' was applied 204 times.
  - rule 'affine: new relation' was applied 170 times.
  - rule 'lin_max: rewrite with precedences' was applied 34 times.
  - rule 'lin_max: target domain reduced' was applied 34 times.
  - rule 'linear1: x in domain' was applied 11 times.
  - rule 'linear: always true' was applied 40 times.
  - rule 'linear: reduced variable domains' was applied 935 times.
  - rule 'linear: remapped using affine relations' was applied 357 times.
  - rule 'presolve: 0 unused variables removed.' was applied 1 time.
  - rule 'presolve: iteration' was applied 2 times.

Presolved optimization model '': (model_fingerprint: 0x288cba2c8e16a65b)
#Variables: 204 (#ints: 34 in objective) (170 primary variables)
  - 195 different domains in [0,14564] with a largest complexity of 1.
#kInterval: 170
#kLinear2: 187
#kNoOverlap: 10 (#intervals: 170)
[Symmetry] Graph for symmetry has 741 nodes and 884 arcs.
[Symmetry] Symmetry computation done. time: 4.78e-05 dtime: 7.635e-05

Preloading model.
#Bound   0.01s best:inf   next:[0,570034] initial_domain
#Model   0.01s var:204/204 constraints:367/367

Starting search at 0.01s with 20 workers.
13 full problem subsolvers: [core, default_lp, fixed, lb_tree_search, max_lp, no_lp, objective_lb_search, objective_shaving_no_lp, probing, pseudo_costs, quick_restart, quick_restart_no_lp, reduced_costs]
7 first solution subsolvers: [fj(2), fj_lin, fs_random, fs_random_no_lp, fs_random_quick_restart, fs_random_quick_restart_no_lp]
17 interleaved subsolvers: [feasibility_pump, graph_arc_lns, graph_cst_lns, graph_dec_lns, graph_var_lns, lb_relax_lns, ls(2), ls_lin, rins/rens, rnd_cst_lns, rnd_var_lns, scheduling_intervals_lns, scheduling_precedences_lns, scheduling_resource_windows_lns, scheduling_time_window_lns, variables_shaving]
3 helper subsolvers: [neighborhood_helper, synchronization_agent, update_gap_integral]

#1       0.02s best:0     next:[]         core
#Done    0.02s core

Task timing                                  n [     min,      max]      avg      dev     time         n [     min,      max]      avg      dev    dtime
                             'core':         1 [  6.68ms,   6.68ms]   6.68ms   0.00ns   6.68ms         1 [206.45us, 206.45us] 206.45us   0.00ns 206.45us
                       'default_lp':         1 [  7.27ms,   7.27ms]   7.27ms   0.00ns   7.27ms         0 [  0.00ns,   0.00ns]   0.00ns   0.00ns   0.00ns
                 'feasibility_pump':         1 [  3.08ms,   3.08ms]   3.08ms   0.00ns   3.08ms         0 [  0.00ns,   0.00ns]   0.00ns   0.00ns   0.00ns
                            'fixed':         1 [  7.10ms,   7.10ms]   7.10ms   0.00ns   7.10ms         0 [  0.00ns,   0.00ns]   0.00ns   0.00ns   0.00ns
                               'fj':         0 [  0.00ns,   0.00ns]   0.00ns   0.00ns   0.00ns         0 [  0.00ns,   0.00ns]   0.00ns   0.00ns   0.00ns
                               'fj':         1 [  2.82ms,   2.82ms]   2.82ms   0.00ns   2.82ms         0 [  0.00ns,   0.00ns]   0.00ns   0.00ns   0.00ns
                           'fj_lin':         0 [  0.00ns,   0.00ns]   0.00ns   0.00ns   0.00ns         0 [  0.00ns,   0.00ns]   0.00ns   0.00ns   0.00ns
                        'fs_random':         1 [  6.14ms,   6.14ms]   6.14ms   0.00ns   6.14ms         0 [  0.00ns,   0.00ns]   0.00ns   0.00ns   0.00ns
                  'fs_random_no_lp':         1 [  4.19ms,   4.19ms]   4.19ms   0.00ns   4.19ms         0 [  0.00ns,   0.00ns]   0.00ns   0.00ns   0.00ns
          'fs_random_quick_restart':         1 [  3.29ms,   3.29ms]   3.29ms   0.00ns   3.29ms         0 [  0.00ns,   0.00ns]   0.00ns   0.00ns   0.00ns
    'fs_random_quick_restart_no_lp':         1 [  5.84ms,   5.84ms]   5.84ms   0.00ns   5.84ms         0 [  0.00ns,   0.00ns]   0.00ns   0.00ns   0.00ns
                    'graph_arc_lns':         0 [  0.00ns,   0.00ns]   0.00ns   0.00ns   0.00ns         0 [  0.00ns,   0.00ns]   0.00ns   0.00ns   0.00ns
                    'graph_cst_lns':         0 [  0.00ns,   0.00ns]   0.00ns   0.00ns   0.00ns         0 [  0.00ns,   0.00ns]   0.00ns   0.00ns   0.00ns
                    'graph_dec_lns':         0 [  0.00ns,   0.00ns]   0.00ns   0.00ns   0.00ns         0 [  0.00ns,   0.00ns]   0.00ns   0.00ns   0.00ns
                    'graph_var_lns':         0 [  0.00ns,   0.00ns]   0.00ns   0.00ns   0.00ns         0 [  0.00ns,   0.00ns]   0.00ns   0.00ns   0.00ns
                     'lb_relax_lns':         0 [  0.00ns,   0.00ns]   0.00ns   0.00ns   0.00ns         0 [  0.00ns,   0.00ns]   0.00ns   0.00ns   0.00ns
                   'lb_tree_search':         1 [  8.42ms,   8.42ms]   8.42ms   0.00ns   8.42ms         0 [  0.00ns,   0.00ns]   0.00ns   0.00ns   0.00ns
                               'ls':         0 [  0.00ns,   0.00ns]   0.00ns   0.00ns   0.00ns         0 [  0.00ns,   0.00ns]   0.00ns   0.00ns   0.00ns
                               'ls':         0 [  0.00ns,   0.00ns]   0.00ns   0.00ns   0.00ns         0 [  0.00ns,   0.00ns]   0.00ns   0.00ns   0.00ns
                           'ls_lin':         0 [  0.00ns,   0.00ns]   0.00ns   0.00ns   0.00ns         0 [  0.00ns,   0.00ns]   0.00ns   0.00ns   0.00ns
                           'max_lp':         1 [ 12.74ms,  12.74ms]  12.74ms   0.00ns  12.74ms         0 [  0.00ns,   0.00ns]   0.00ns   0.00ns   0.00ns
                            'no_lp':         1 [  6.62ms,   6.62ms]   6.62ms   0.00ns   6.62ms         0 [  0.00ns,   0.00ns]   0.00ns   0.00ns   0.00ns
              'objective_lb_search':         1 [  6.92ms,   6.92ms]   6.92ms   0.00ns   6.92ms         0 [  0.00ns,   0.00ns]   0.00ns   0.00ns   0.00ns
          'objective_shaving_no_lp':         1 [  6.83ms,   6.83ms]   6.83ms   0.00ns   6.83ms         0 [  0.00ns,   0.00ns]   0.00ns   0.00ns   0.00ns
                          'probing':         1 [ 11.44ms,  11.44ms]  11.44ms   0.00ns  11.44ms         0 [  0.00ns,   0.00ns]   0.00ns   0.00ns   0.00ns
                     'pseudo_costs':         1 [  5.45ms,   5.45ms]   5.45ms   0.00ns   5.45ms         0 [  0.00ns,   0.00ns]   0.00ns   0.00ns   0.00ns
                    'quick_restart':         1 [  8.46ms,   8.46ms]   8.46ms   0.00ns   8.46ms         0 [  0.00ns,   0.00ns]   0.00ns   0.00ns   0.00ns
              'quick_restart_no_lp':         1 [  5.71ms,   5.71ms]   5.71ms   0.00ns   5.71ms         0 [  0.00ns,   0.00ns]   0.00ns   0.00ns   0.00ns
                    'reduced_costs':         1 [  9.13ms,   9.13ms]   9.13ms   0.00ns   9.13ms         0 [  0.00ns,   0.00ns]   0.00ns   0.00ns   0.00ns
                        'rins/rens':         0 [  0.00ns,   0.00ns]   0.00ns   0.00ns   0.00ns         0 [  0.00ns,   0.00ns]   0.00ns   0.00ns   0.00ns
                      'rnd_cst_lns':         0 [  0.00ns,   0.00ns]   0.00ns   0.00ns   0.00ns         0 [  0.00ns,   0.00ns]   0.00ns   0.00ns   0.00ns
                      'rnd_var_lns':         0 [  0.00ns,   0.00ns]   0.00ns   0.00ns   0.00ns         0 [  0.00ns,   0.00ns]   0.00ns   0.00ns   0.00ns
         'scheduling_intervals_lns':         0 [  0.00ns,   0.00ns]   0.00ns   0.00ns   0.00ns         0 [  0.00ns,   0.00ns]   0.00ns   0.00ns   0.00ns
       'scheduling_precedences_lns':         0 [  0.00ns,   0.00ns]   0.00ns   0.00ns   0.00ns         0 [  0.00ns,   0.00ns]   0.00ns   0.00ns   0.00ns
  'scheduling_resource_windows_lns':         0 [  0.00ns,   0.00ns]   0.00ns   0.00ns   0.00ns         0 [  0.00ns,   0.00ns]   0.00ns   0.00ns   0.00ns
       'scheduling_time_window_lns':         0 [  0.00ns,   0.00ns]   0.00ns   0.00ns   0.00ns         0 [  0.00ns,   0.00ns]   0.00ns   0.00ns   0.00ns
                'variables_shaving':         1 [  5.41ms,   5.41ms]   5.41ms   0.00ns   5.41ms         0 [  0.00ns,   0.00ns]   0.00ns   0.00ns   0.00ns

Search stats                        Bools  Conflicts  Branches  Restarts  BoolPropag  IntegerPropag
                           'core':    187          0       203         2          18          1'189
                     'default_lp':     49          0        49         0           0            483
                          'fixed':      5          0         5         0           0             88
                      'fs_random':      0          0         0         0           0              0
                'fs_random_no_lp':      0          0         0         0           0              0
        'fs_random_quick_restart':      0          0         0         0           0              0
  'fs_random_quick_restart_no_lp':      0          0         0         0           0              0
                 'lb_tree_search':  1'360          0         0         0           0              0
                         'max_lp':      0          0         0         0           0              0
                          'no_lp':    150          0       149         0           0            917
            'objective_lb_search':      0          0         0         0           0              0
                        'probing':  1'360          0         0         0           0              0
                   'pseudo_costs':      0          0         0         0           0              0
                  'quick_restart':      0          0         0         0           0              0
            'quick_restart_no_lp':     19          0        19         0           0            307
                  'reduced_costs':  1'360          0         0         0           0              0

SAT stats                           ClassicMinim  LitRemoved  LitLearned  LitForgotten  Subsumed  MClauses  MDecisions  MLitTrue  MSubsumed  MLitRemoved  MReused
                           'core':             0           0           0             0         0         0           0         0          0            0        0
                     'default_lp':             0           0           0             0         0         0           0         0          0            0        0
                          'fixed':             0           0           0             0         0         0           0         0          0            0        0
                      'fs_random':             0           0           0             0         0         0           0         0          0            0        0
                'fs_random_no_lp':             0           0           0             0         0         0           0         0          0            0        0
        'fs_random_quick_restart':             0           0           0             0         0         0           0         0          0            0        0
  'fs_random_quick_restart_no_lp':             0           0           0             0         0         0           0         0          0            0        0
                 'lb_tree_search':             0           0           0             0         0         0           0         0          0            0        0
                         'max_lp':             0           0           0             0         0         0           0         0          0            0        0
                          'no_lp':             0           0           0             0         0         0           0         0          0            0        0
            'objective_lb_search':             0           0           0             0         0         0           0         0          0            0        0
                        'probing':             0           0           0             0         0         0           0         0          0            0        0
                   'pseudo_costs':             0           0           0             0         0         0           0         0          0            0        0
                  'quick_restart':             0           0           0             0         0         0           0         0          0            0        0
            'quick_restart_no_lp':             0           0           0             0         0         0           0         0          0            0        0
                  'reduced_costs':             0           0           0             0         0         0           0         0          0            0        0

Lp stats                  Component  Iterations  AddedCuts  OPTIMAL  DUAL_F.  DUAL_U.
           'default_lp':         17          17          0      144        0        0
                'fixed':         17          17          0       95        0        0
               'max_lp':          1          17         91        1        0        0
  'objective_lb_search':         17           0          0        0        0        0
         'pseudo_costs':          1          17          0        2        0        0
        'quick_restart':         17           0          0        0        0        0

Lp dimension              Final dimension of first component
           'default_lp':       1 rows, 12 columns, 2 entries
                'fixed':       1 rows, 12 columns, 2 entries
               'max_lp':  197 rows, 204 columns, 426 entries
  'objective_lb_search':       0 rows, 12 columns, 0 entries
         'pseudo_costs':    17 rows, 204 columns, 34 entries
        'quick_restart':       0 rows, 12 columns, 0 entries

Lp debug                  CutPropag  CutEqPropag  Adjust  Overflow  Bad  BadScaling
           'default_lp':          0            0       0         0    0           0
                'fixed':          0            0       0         0    0           0
               'max_lp':          0            0       0         0    0           0
  'objective_lb_search':          0            0       0         0    0           0
         'pseudo_costs':          0            0       0         0    0           0
        'quick_restart':          0            0       0         0    0           0

Lp pool                   Constraints  Updates  Simplif  Merged  Shortened  Split  Strenghtened  Cuts/Call
           'default_lp':          187        0        0       0          0      0             0        0/0
                'fixed':          187        0        0       0          0      0             0        0/0
               'max_lp':          278        0        0       0          0      0             0     91/111
  'objective_lb_search':          187        0        0       0          0      0             0        0/0
         'pseudo_costs':          187        0        0       0          0      0             0        0/0
        'quick_restart':          187        0        0       0          0      0             0        0/0

Lp Cut                                                max_lp
                  NoOverlapCompletionTimeExhaustive:       4
           NoOverlapCompletionTimeExhaustive_lifted:       9
  NoOverlapCompletionTimeExhaustive_lifted_weighted:       7
         NoOverlapCompletionTimeExhaustive_weighted:      10
                    NoOverlapCompletionTimeQueyrane:      10
             NoOverlapCompletionTimeQueyrane_lifted:       8
                        NoOverlapDisjunctionOnStart:      43

LNS stats                             Improv/Calls  Closed  Difficulty  TimeLimit
                    'graph_arc_lns':           0/0      0%    5.00e-01       0.10
                    'graph_cst_lns':           0/0      0%    5.00e-01       0.10
                    'graph_dec_lns':           0/0      0%    5.00e-01       0.10
                    'graph_var_lns':           0/0      0%    5.00e-01       0.10
                     'lb_relax_lns':           0/0      0%    5.00e-01       0.50
                        'rins/rens':           0/0      0%    5.00e-01       0.10
                      'rnd_cst_lns':           0/0      0%    5.00e-01       0.10
                      'rnd_var_lns':           0/0      0%    5.00e-01       0.10
         'scheduling_intervals_lns':           0/0      0%    5.00e-01       0.10
       'scheduling_precedences_lns':           0/0      0%    5.00e-01       0.10
  'scheduling_resource_windows_lns':           0/0      0%    5.00e-01       0.10
       'scheduling_time_window_lns':           0/0      0%    5.00e-01       0.10

Solutions (1)    Num   Rank
        'core':    1  [1,1]

Objective bounds     Num
  'initial_domain':    1

Solution repositories    Added  Queried  Synchro
  'feasible solutions':      1        0        1
   'fj solution hints':      0        0        0
        'lp solutions':      0        0        0
                'pump':      0        0

CpSolverResponse summary:
status: OPTIMAL
objective: 0
best_bound: 0
integers: 222
booleans: 49
conflicts: 0
branches: 49
propagations: 0
integer_propagations: 483
restarts: 0
lp_iterations: 17
walltime: 0.0463724
usertime: 0.0463725
deterministic_time: 0.000225668
gap_integral: 0.00273615
solution_fingerprint: 0x71d1c60b991f9246

